
List of user-set options:

                                    Name   Value                used
                           compl_inf_tol = 1                     yes
                         constr_viol_tol = 1                     yes
                            dual_inf_tol = 1000                  yes
                           linear_solver = ma97                  yes
                              ma86_small = 1e-30                  no
                                  ma86_u = 0.0001                 no
                              ma97_order = best                  yes
                              ma97_small = 1e-30                 yes
                            ma97_switch1 = at_start              yes
                            ma97_switch2 = od_hd_reuse           yes
                                  ma97_u = 1e-06                 yes
                               ma97_umax = 0.5                   yes
                                max_iter = 1000                  yes
                    max_refinement_steps = 20                    yes
                    min_refinement_steps = 5                     yes
                                 mu_init = 1e-06                 yes
           mu_superlinear_decrease_power = 1.25                  yes
                   nlp_scaling_min_value = 1e-08                 yes
                        option_file_name = Preset_Case:_832_NCP.opt  yes
                             output_file = ./tmp/Preset_Case:_832_NCP.output  yes
                      print_user_options = yes                   yes
        required_infeasibility_reduction = 1                      no
                                     tol = 1e-08                 yes
                   warm_start_bound_frac = 1e-20                 yes
                   warm_start_bound_push = 1e-20                 yes
                   warm_start_init_point = yes                   yes
              warm_start_mult_bound_push = 1e-20                 yes
                warm_start_mult_init_max = 1e+40                 yes
             warm_start_slack_bound_frac = 1e-20                 yes
             warm_start_slack_bound_push = 1e-20                 yes

******************************************************************************
This program contains Ipopt, a library for large-scale nonlinear optimization.
 Ipopt is released as open source code under the Eclipse Public License (EPL).
         For more information visit http://projects.coin-or.org/Ipopt
******************************************************************************

This is Ipopt version 3.12.10, running with linear solver ma97.

Number of nonzeros in equality constraint Jacobian...:   117167
Number of nonzeros in inequality constraint Jacobian.:      213
Number of nonzeros in Lagrangian Hessian.............:    47513

Total number of variables............................:    29977
                     variables with only lower bounds:    11312
                variables with lower and upper bounds:    15135
                     variables with only upper bounds:        0
Total number of equality constraints.................:    29864
Total number of inequality constraints...............:       25
        inequality constraints with only lower bounds:        4
   inequality constraints with lower and upper bounds:        0
        inequality constraints with only upper bounds:       21

iter    objective    inf_pr   inf_du lg(mu)  ||d||  lg(rg) alpha_du alpha_pr  ls
   0 -2.0771345e-01 7.09e-02 2.00e+00  -6.0 0.00e+00    -  0.00e+00 0.00e+00   0
In iteration 0, 8 Slacks too small, adjusting variable bounds
   1 -2.0771345e-01 7.09e-02 4.77e+02  -6.0 1.11e+10    -  4.76e-14 7.44e-19h  1
   2 -2.0771249e-01 7.09e-02 4.77e+02  -6.0 4.61e+01    -  1.00e-02 4.75e-05f  1
   3 -2.0771101e-01 7.08e-02 4.76e+02  -6.0 3.87e+01    -  2.02e-02 8.12e-05h  1
   4 -2.0771116e-01 7.08e-02 4.75e+02  -6.0 3.77e+02    -  2.42e-02 2.58e-05f  1
   5 -2.0771116e-01 7.08e-02 4.72e+02  -6.0 2.44e+01    -  1.58e-01 1.66e-06h  2
   6 -2.0761780e-01 7.05e-02 4.67e+02  -6.0 4.12e+01    -  1.76e-01 5.12e-03h  1
   7 -2.0635899e-01 6.63e-02 4.41e+02  -6.0 4.62e+01    -  1.56e-06 5.87e-02h  1
   8 -2.0553592e-01 6.31e-02 4.09e+02  -6.0 6.40e+01    -  1.47e-01 4.96e-02h  2
   9 -2.0467845e-01 5.98e-02 3.92e+02  -6.0 7.88e+01    -  4.41e-03 5.17e-02h  2
iter    objective    inf_pr   inf_du lg(mu)  ||d||  lg(rg) alpha_du alpha_pr  ls
  10 -2.0383846e-01 5.52e-02 3.73e+02  -6.0 5.86e+01    -  7.61e-02 7.75e-02h  1
  11 -2.0352586e-01 5.60e-02 8.05e+03  -6.0 6.09e+01    -  7.73e-02 6.07e-02h  2
  12 -2.0338354e-01 5.69e-02 1.71e+04  -6.0 5.74e+01    -  6.07e-02 3.94e-02h  2
  13 -2.0327189e-01 5.73e-02 4.82e+04  -6.0 5.71e+01    -  1.11e-01 3.39e-02h  3
  14 -2.0306718e-01 5.85e-02 9.91e+04  -6.0 4.83e+01    -  2.13e-01 4.77e-02h  3
  15 -2.0278583e-01 5.97e-02 1.14e+05  -6.0 6.13e+01    -  1.35e-01 4.38e-02h  4
  16 -2.0255094e-01 5.93e-02 1.19e+05  -6.0 5.90e+01    -  7.75e-02 2.37e-02h  5
  17 -2.0222704e-01 5.90e-02 1.45e+05  -6.0 6.30e+01    -  2.75e-01 2.63e-02h  5
  18 -2.0163960e-01 5.94e-02 1.41e+05  -6.0 7.02e+01    -  6.44e-02 3.60e-02h  5
  19 -2.0080372e-01 5.94e-02 1.37e+05  -6.0 5.16e+01    -  2.15e-01 4.02e-02h  4
iter    objective    inf_pr   inf_du lg(mu)  ||d||  lg(rg) alpha_du alpha_pr  ls
  20 -2.0000345e-01 6.03e-02 1.31e+05  -6.0 7.02e+01    -  1.01e-01 4.30e-02h  5
  21 -1.8338025e-01 1.78e+00 4.72e+04  -6.0 5.86e+01    -  1.36e-01 7.61e-01w  1
  22 -1.7875011e-01 6.30e-01 1.27e+04  -6.0 1.65e+01    -  7.28e-01 7.30e-01w  1
  23 -1.7783485e-01 1.04e-01 1.51e+03  -6.0 5.67e+00    -  9.11e-01 9.54e-01h  1
  24 -1.8012875e-01 1.77e-02 2.07e+03  -6.0 2.55e+00  -4.0 5.19e-01 1.00e+00h  1
  25 -1.8214081e-01 5.99e-02 1.36e+04  -6.0 3.11e+01    -  2.58e-01 2.25e-01h  2
  26 -1.8327127e-01 5.24e-02 1.07e+05  -6.0 7.19e+01    -  3.93e-01 1.98e-01h  2
  27 -1.8451643e-01 4.94e-02 1.58e+05  -6.0 6.46e+01    -  2.46e-01 1.94e-01h  1
  28 -1.8451014e-01 4.94e-02 6.82e+05  -6.0 3.21e+03    -  7.82e-04 4.58e-05h  1
  29 -1.8488368e-01 4.89e-02 3.87e+05  -6.0 1.14e+02    -  3.14e-01 4.21e-02f  1
iter    objective    inf_pr   inf_du lg(mu)  ||d||  lg(rg) alpha_du alpha_pr  ls
  30 -1.8515522e-01 5.61e-02 3.96e+05  -6.0 1.57e+02    -  4.24e-02 3.90e-02h  4
  31 -1.8541074e-01 6.35e-02 3.80e+05  -6.0 1.60e+02    -  5.05e-01 3.99e-02h  4
  32 -1.8553833e-01 6.70e-02 3.76e+05  -6.0 4.61e+02    -  1.37e-01 1.12e-02h  4
  33 -1.8566574e-01 6.98e-02 3.72e+05  -6.0 5.12e+02    -  3.84e-02 1.10e-02h  4
  34 -1.8580303e-01 7.23e-02 3.67e+05  -6.0 5.05e+02    -  4.77e-01 1.22e-02h  4
  35 -1.8729794e-01 7.57e-01 3.33e+05  -6.0 1.01e+03    -  3.84e-02 9.30e-02h  1
  36 -1.9036381e-01 1.53e+00 2.46e+05  -6.0 7.08e+02    -  4.03e-01 2.62e-01h  1
  37 -1.9044100e-01 1.35e+00 2.17e+05  -6.0 3.43e+00  -4.5 3.42e-01 1.15e-01h  1
  38 -1.9121362e-01 1.94e-01 3.09e+04  -6.0 3.66e+00  -5.0 9.10e-01 8.53e-01h  1
  39 -1.9209362e-01 1.22e-01 1.19e+04  -6.0 5.08e+00  -5.4 3.59e-03 6.15e-01h  1
iter    objective    inf_pr   inf_du lg(mu)  ||d||  lg(rg) alpha_du alpha_pr  ls
  40 -1.9222180e-01 1.16e-01 1.11e+04  -6.0 1.27e+01  -5.9 6.08e-01 6.79e-02h  1
  41 -1.9267825e-01 2.87e-01 8.85e+03  -6.0 2.43e+01  -6.4 5.65e-01 2.03e-01h  1
  42 -1.9325379e-01 3.12e-01 6.57e+03  -6.0 4.03e+01  -6.9 6.91e-01 2.58e-01h  1
  43 -1.9338615e-01 2.87e-01 5.90e+03  -6.0 3.59e+01  -6.4 6.16e-01 1.01e-01h  1
  44 -1.9398497e-01 1.98e-01 3.53e+03  -6.0 4.36e+01  -6.9 4.78e-01 4.04e-01h  1
  45 -1.9482410e-01 2.40e-01 2.39e+03  -6.0 1.24e+02  -7.4 1.00e+00 3.24e-01h  1
  46 -1.9686598e-01 5.36e-01 1.55e+03  -6.0 3.17e+02  -7.9 1.00e+00 3.50e-01h  1
  47 -1.9958486e-01 2.77e+00 1.37e+03  -6.0 2.58e+03  -8.3 9.00e-02 1.20e-01h  1
  48 -2.0114729e-01 9.54e-01 3.00e+02  -6.0 1.11e+02  -7.0 6.79e-04 8.46e-01h  1
  49 -2.0172320e-01 8.55e-01 9.13e+02  -6.0 1.94e+02  -7.5 6.60e-01 1.74e-01f  1
iter    objective    inf_pr   inf_du lg(mu)  ||d||  lg(rg) alpha_du alpha_pr  ls
  50 -2.0339504e-01 1.61e+00 1.17e+03  -6.0 1.31e+03  -8.0 5.70e-01 1.22e-01h  1
  51 -2.0555403e-01 2.46e+00 1.43e+03  -6.0 3.37e+02  -7.5 1.00e+00 4.31e-01h  1
  52 -2.0567702e-01 2.44e+00 2.87e+02  -6.0 1.06e+03  -8.0 4.14e-01 1.07e-02h  1
  53 -2.0605641e-01 2.19e+00 1.77e+02  -6.0 2.05e+02  -7.6 2.52e-01 1.17e-01h  1
  54 -2.0803028e-01 3.47e+00 1.23e+02  -6.0 6.73e+02  -8.1 2.61e-01 2.54e-01h  1
  55 -2.0881806e-01 3.11e+00 3.03e+03  -6.0 9.33e+02  -8.5 3.26e-01 1.10e-01h  1
  56 -2.0912155e-01 2.62e+00 2.58e+03  -6.0 2.77e+02  -8.1 1.62e-01 1.58e-01h  1
  57 -2.1151239e-01 8.43e-01 1.24e+03  -6.0 2.00e+02  -7.7 1.00e+00 8.86e-01h  1
  58 -2.1405671e-01 1.39e+00 9.36e+03  -6.0 4.65e+02  -8.2 3.69e-01 5.19e-01h  1
  59 -2.1520043e-01 8.22e-01 9.74e+06  -6.0 1.89e+02  -7.7 2.37e-03 5.51e-01h  1
iter    objective    inf_pr   inf_du lg(mu)  ||d||  lg(rg) alpha_du alpha_pr  ls
  60 -2.1510307e-01 1.82e+01 5.07e+03  -6.0 9.99e+02  -8.2 3.48e-01 1.00e+00h  1
  61 -2.1555150e-01 1.77e+01 4.92e+03  -6.0 2.57e+03  -7.8 7.48e-02 2.97e-02h  1
  62 -2.1647988e-01 1.22e+01 3.27e+03  -6.0 4.55e+02  -8.3 2.72e-01 3.31e-01h  1
  63 -2.1712178e-01 1.04e+01 2.76e+03  -6.0 2.46e+02  -7.9 7.30e-01 1.49e-01h  1
  64 -2.1938619e-01 4.93e+00 1.05e+03  -6.0 3.68e+02  -8.3 6.10e-01 6.17e-01h  1
  65 -2.2047258e-01 1.81e+00 3.40e+02  -6.0 1.64e+02  -7.9 1.00e+00 6.78e-01h  1
  66 -2.2166902e-01 4.50e+00 2.49e+02  -6.0 1.17e+03  -8.4 9.92e-02 2.65e-01h  1
  67 -2.2197455e-01 3.93e+00 2.14e+02  -6.0 7.93e+02  -8.0 2.55e-01 1.41e-01h  1
  68 -2.2596569e-01 6.47e+00 5.64e+01  -6.0 9.89e+02  -8.4 8.09e-01 9.48e-01h  1
  69 -2.2596515e-01 6.46e+00 5.63e+01  -6.0 1.51e+01  -0.6 7.73e-04 9.69e-04h  1
iter    objective    inf_pr   inf_du lg(mu)  ||d||  lg(rg) alpha_du alpha_pr  ls
  70 -2.2596414e-01 6.46e+00 5.63e+01  -6.0 1.48e+01  -0.2 2.63e-04 4.61e-04h  1
  71 -2.2595740e-01 6.44e+00 5.60e+01  -6.0 1.67e+01  -0.6 7.19e-05 2.02e-03h  1
  72 -2.2595726e-01 6.44e+00 5.62e+01  -6.0 1.75e+01  -0.2 4.16e-03 6.45e-05h  1
  73 -2.2595248e-01 6.43e+00 1.26e+02  -6.0 1.77e+01   0.2 4.48e-03 2.34e-03h  1
  74 -2.2594127e-01 6.40e+00 2.42e+02  -6.0 1.78e+01  -0.3 8.31e-03 4.79e-03h  1
  75 -2.2592701e-01 6.36e+00 3.01e+02  -6.0 1.80e+01  -0.7 1.69e-02 6.50e-03h  1
  76 -2.2590081e-01 6.24e+00 3.87e+02  -6.0 1.93e+01  -1.2 2.25e-02 1.84e-02h  1
  77 -2.2588836e-01 6.18e+00 3.67e+02  -6.0 1.87e+01  -1.7 1.07e-01 9.97e-03h  1
  78 -2.2374318e-01 2.84e+00 2.89e+05  -6.0 1.78e+01  -2.2 6.68e-03 1.00e+00h  1
  79 -2.2374646e-01 2.75e+00 2.80e+05  -6.0 2.54e+00  -1.7 6.89e-02 3.17e-02h  1
iter    objective    inf_pr   inf_du lg(mu)  ||d||  lg(rg) alpha_du alpha_pr  ls
  80 -2.2376529e-01 2.35e+00 2.40e+05  -6.0 2.61e+00  -2.2 2.74e-03 1.49e-01f  1
  81 -2.2376469e-01 2.22e+00 2.26e+05  -6.0 2.22e+00  -1.8 2.32e-01 5.72e-02h  1
  82 -2.2382544e-01 2.65e-01 4.49e+04  -6.0 2.26e+00  -2.3 3.62e-03 1.00e+00f  1
  83 -2.2394192e-01 9.67e-02 1.69e+04  -6.0 8.32e-01  -2.8 8.68e-01 6.40e-01h  1
  84 -2.2393182e-01 5.06e-03 3.80e+02  -6.0 1.57e-01  -3.2 4.30e-01 1.00e+00f  1
  85 -2.2405725e-01 1.65e-03 2.32e+00  -6.0 2.52e-01  -3.7 7.75e-01 1.00e+00h  1
  86 -2.2428744e-01 3.70e-03 1.79e+00  -6.0 6.45e-01  -4.2 5.91e-01 8.70e-01h  1
  87 -2.2438162e-01 5.11e-03 5.05e+00  -6.0 1.70e+00  -4.7 6.54e-01 1.38e-01h  1
  88 -2.2494627e-01 1.42e-01 3.22e+00  -6.0 6.08e+00  -5.1 3.52e-01 3.53e-01f  1
  89 -2.2528549e-01 1.16e-01 2.59e+01  -6.0 1.24e+01  -5.6 4.89e-01 1.17e-01h  1
iter    objective    inf_pr   inf_du lg(mu)  ||d||  lg(rg) alpha_du alpha_pr  ls
  90 -2.2559077e-01 1.25e-01 3.76e+01  -6.0 2.42e+01  -6.1 1.00e+00 7.17e-02h  1
  91 -2.2625636e-01 3.39e-01 3.41e+01  -6.0 3.35e+01  -6.6 4.99e-01 1.31e-01h  1
  92 -2.2659583e-01 3.94e-01 6.86e+01  -6.0 3.90e+01  -7.0 5.85e-01 7.71e-02h  1
  93 -2.2685133e-01 3.47e-01 1.40e+01  -6.0 8.52e+01  -7.5 1.00e+00 2.03e-01h  1
  94 -2.2868306e-01 7.75e-01 9.98e+00  -6.0 2.27e+02  -8.0 1.00e+00 8.31e-01h  1
  95 -2.3083477e-01 3.91e+00 7.19e+01  -6.0 9.21e+02  -8.5 5.12e-01 1.97e-01h  1
  96 -2.3251559e-01 6.22e+00 1.34e+02  -6.0 3.27e+02  -8.1 1.64e-01 3.48e-01h  1
  97 -2.3297656e-01 6.24e+00 1.42e+02  -6.0 9.13e+02  -8.5 3.14e-02 3.07e-02h  1
  98 -2.3399338e-01 6.71e+00 9.91e+01  -6.0 1.70e+03  -9.0 1.25e-01 3.90e-02h  1
  99 -2.3423661e-01 6.45e+00 9.38e+01  -6.0 4.59e+02  -8.6 1.43e-01 4.08e-02h  1
iter    objective    inf_pr   inf_du lg(mu)  ||d||  lg(rg) alpha_du alpha_pr  ls
 100 -2.3661665e-01 4.49e+00 8.37e+01  -6.0 7.58e+02  -9.1 1.56e-01 2.98e-01h  1
 101 -2.3710885e-01 3.94e+00 1.01e+02  -6.0 3.08e+02  -8.6 4.01e-01 1.23e-01h  1
 102 -2.3952895e-01 2.23e+00 5.01e+01  -6.0 8.79e+02  -9.1 1.48e-01 4.24e-01h  1
 103 -2.4136283e-01 1.45e+00 1.60e+01  -6.0 4.00e+02  -8.7 7.14e-01 6.69e-01h  1
 104 -2.4588669e-01 9.25e+00 2.88e+01  -6.0 8.66e+02  -9.2 3.11e-01 1.00e+00h  1
 105 -2.4645822e-01 5.47e+00 1.70e+01  -6.0 3.01e+02  -8.7 6.88e-01 4.48e-01h  1
 106 -2.4657569e-01 5.36e+00 1.67e+01  -6.0 2.06e+03  -9.2 2.68e-02 2.57e-02h  1
 107 -2.4785510e-01 2.95e+00 2.15e+01  -6.0 3.69e+02  -8.8 3.77e-02 9.23e-01h  1
 108 -2.4791161e-01 1.07e-02 1.54e+01  -6.0 3.74e+00  -5.6 5.28e-01 1.00e+00h  1
 109 -2.4790652e-01 6.05e-05 1.59e-02  -6.0 8.25e-01  -6.1 1.00e+00 1.00e+00h  1
iter    objective    inf_pr   inf_du lg(mu)  ||d||  lg(rg) alpha_du alpha_pr  ls
 110 -2.4791835e-01 1.65e-04 9.72e-03  -6.0 2.37e+00  -6.6 1.00e+00 1.00e+00h  1
 111 -2.4795175e-01 1.54e-03 2.84e-03  -6.0 7.44e+00  -7.1 1.00e+00 1.00e+00h  1
 112 -2.4805356e-01 1.56e-02 3.00e-02  -6.0 2.90e+01  -7.6 1.00e+00 1.00e+00h  1
 113 -2.4809244e-01 3.81e-03 1.41e-02  -6.0 1.78e+01  -7.1 1.00e+00 1.00e+00h  1
 114 -2.4810177e-01 4.45e-03 8.35e-01  -6.0 1.28e+01  -6.7 1.00e+00 5.82e-01h  1
 115 -2.4812887e-01 2.10e-03 1.71e-01  -6.0 9.56e+00  -7.2 1.00e+00 1.00e+00f  1
 116 -2.4823608e-01 1.78e-02 1.11e-01  -6.0 2.86e+01  -7.7 1.00e+00 1.00e+00h  1
 117 -2.4857551e-01 1.71e-01 4.72e-01  -6.0 8.87e+01  -8.1 1.00e+00 1.00e+00h  1
 118 -2.4962058e-01 1.94e+00 5.32e+00  -6.0 2.98e+02  -8.6 1.00e+00 1.00e+00h  1
 119 -2.5015802e-01 3.46e+00 1.23e+01  -6.0 1.58e+03  -9.1 1.79e-01 1.83e-01h  1
iter    objective    inf_pr   inf_du lg(mu)  ||d||  lg(rg) alpha_du alpha_pr  ls
 120 -2.5059231e-01 2.55e+00 1.35e+01  -6.0 2.85e+02  -8.7 3.74e-01 3.17e-01h  1
 121 -2.5150105e-01 4.70e+00 8.32e+01  -6.0 1.37e+03  -9.1 5.25e-01 2.55e-01h  1
 122 -2.5285751e-01 9.89e+00 7.47e+01  -6.0 4.56e+03  -9.6 5.91e-02 1.09e-01h  1
 123 -2.5296609e-01 7.33e+00 7.35e+01  -6.0 6.51e+02  -9.2 2.55e-01 2.76e-01h  1
 124 -2.5354066e-01 3.32e+00 9.75e+01  -6.0 3.35e+02  -8.8 8.37e-01 5.60e-01h  1
 125 -2.5410526e-01 2.21e+00 1.87e+02  -6.0 4.54e+02  -9.2 2.06e-01 3.34e-01h  1
 126 -2.5488393e-01 4.55e+00 3.45e+02  -6.0 9.61e+02  -9.7 9.11e-01 5.37e-01h  1
 127 -2.5488798e-01 4.46e+00 3.38e+02  -6.0 1.15e+03  -9.3 2.04e-02 2.14e-02h  1
 128 -2.5561842e-01 6.23e+00 8.20e+01  -6.0 8.84e+02  -9.8 5.02e-01 6.01e-01h  1
 129 -2.5589849e-01 3.64e+00 7.31e+02  -6.0 3.39e+02  -9.3 1.00e+00 4.78e-01h  1
iter    objective    inf_pr   inf_du lg(mu)  ||d||  lg(rg) alpha_du alpha_pr  ls
 130 -2.5607369e-01 1.48e+00 3.76e+02  -6.0 1.84e+02  -8.9 8.11e-01 6.34e-01h  1
 131 -2.5618734e-01 2.63e-01 1.05e+05  -6.0 9.14e+01  -6.7 2.61e-02 9.48e-01h  1
 132 -2.5614284e-01 8.45e-02 3.36e+04  -6.0 8.69e+00  -6.3 6.02e-01 6.80e-01h  1
 133 -2.5612495e-01 6.37e-02 2.56e+01  -6.0 1.51e+01  -6.7 1.00e+00 1.00e+00h  1
 134 -2.5611896e-01 1.79e-02 3.40e+00  -6.0 5.34e+00  -6.3 8.34e-01 1.00e+00h  1
 135 -2.5604929e-01 2.82e-01 6.28e+01  -6.0 2.10e+01  -6.8 2.57e-01 1.00e+00h  1
 136 -2.5607388e-01 2.19e-01 6.08e+01  -6.0 2.02e+01  -7.3 2.21e-01 4.99e-01h  1
 137 -2.5610086e-01 2.75e-01 3.10e+01  -6.0 4.67e+01  -7.7 3.39e-01 2.12e-01f  1
 138 -2.5612753e-01 1.74e+00 2.67e+02  -6.0 1.42e+02  -8.2 1.24e-01 3.16e-01f  1
 139 -2.5618782e-01 1.60e+00 1.77e+02  -6.0 1.37e+02  -8.7 2.75e-01 4.85e-01f  1
iter    objective    inf_pr   inf_du lg(mu)  ||d||  lg(rg) alpha_du alpha_pr  ls
 140 -2.5628046e-01 1.48e+00 1.69e+02  -6.0 4.78e+02  -9.2 3.22e-03 9.86e-02h  1
 141 -2.5627724e-01 1.48e+00 1.70e+02  -6.0 2.54e+04  -9.7 7.56e-03 3.38e-03f  3
 142 -2.5653320e-01 1.58e+00 1.64e+02  -6.0 6.51e+02  -9.2 1.45e-01 1.88e-01h  1
 143 -2.5663493e-01 1.82e+00 1.20e+02  -6.0 2.05e+02  -7.0 8.06e-02 3.19e-02h  1
 144 -2.5704779e-01 3.91e+00 6.79e+01  -6.0 1.69e+01  -7.5 1.90e-04 7.38e-01h  1
 145 -2.5689475e-01 1.64e+00 6.99e+01  -6.0 1.44e+01  -6.1 1.78e-02 3.80e-01h  1
 146 -2.5694802e-01 4.03e-01 8.78e+00  -6.0 2.49e+00  -4.8 1.00e+00 7.66e-01h  1
 147 -2.5701177e-01 4.63e-02 4.97e+01  -6.0 1.89e+00  -5.3 5.50e-01 1.00e+00h  1
 148 -2.5705007e-01 4.38e-02 7.49e+00  -6.0 4.11e+00  -5.8 1.00e+00 1.91e-01h  1
 149 -2.5724716e-01 3.60e-01 1.40e+01  -6.0 4.91e+00  -6.2 1.00e+00 8.37e-01f  1
iter    objective    inf_pr   inf_du lg(mu)  ||d||  lg(rg) alpha_du alpha_pr  ls
 150 -2.5758713e-01 1.60e+00 7.30e+01  -6.0 1.00e+01  -6.7 1.00e+00 1.00e+00f  1
 151 -2.5775818e-01 8.55e-01 5.34e+01  -6.0 1.45e+01  -7.2 1.00e+00 6.75e-01h  1
 152 -2.5788475e-01 2.46e-01 7.46e+00  -6.0 3.88e+01  -7.7 9.54e-01 1.00e+00h  1
 153 -2.5796718e-01 3.28e-01 1.48e+01  -6.0 6.88e+01  -7.3 1.08e-01 9.21e-02h  1
 154 -2.5812950e-01 2.13e-01 2.06e+01  -6.0 2.63e+01  -7.7 1.00e+00 1.00e+00h  1
 155 -2.5820811e-01 1.61e-01 2.07e+01  -6.0 7.90e+01  -8.2 3.61e-01 3.45e-01h  1
 156 -2.5842410e-01 1.31e-01 4.87e+02  -6.0 2.54e+02  -8.7 8.34e-01 6.09e-01h  1
 157 -2.5842439e-01 1.14e-01 3.44e+02  -6.0 3.34e+02  -8.3 8.83e-02 1.66e-01h  1
 158 -2.5843474e-01 1.02e-01 5.13e+02  -6.0 1.14e+02  -8.7 8.98e-03 1.02e-01h  1
 159 -2.5843622e-01 9.70e-02 2.69e+03  -6.0 5.39e-01  -0.9 3.11e-02 5.33e-02h  1
iter    objective    inf_pr   inf_du lg(mu)  ||d||  lg(rg) alpha_du alpha_pr  ls
 160 -2.5843272e-01 9.26e-02 2.54e+03  -6.0 8.57e-01  -1.4 3.68e-03 4.54e-02h  1
 161 -2.5843659e-01 9.18e-02 2.52e+03  -6.0 9.20e+00  -1.8 2.60e-03 8.27e-03f  1
 162 -2.5843621e-01 8.93e-02 2.46e+03  -6.0 2.90e+00  -2.3 4.93e-02 2.73e-02h  1
 163 -2.5843733e-01 8.67e-02 2.39e+03  -6.0 6.29e+00  -2.8 6.05e-02 2.86e-02h  1
 164 -2.5843933e-01 8.47e-02 2.38e+03  -6.0 9.99e+00  -3.3 3.22e-01 2.31e-02h  1
 165 -2.5848811e-01 5.44e-02 1.56e+03  -6.0 1.28e+01  -3.8 2.36e-01 3.50e-01h  1
 166 -2.5849220e-01 4.10e-02 1.18e+03  -6.0 8.90e+00  -3.3 7.82e-02 2.43e-01h  1
 167 -2.5848984e-01 4.07e-02 1.17e+03  -6.0 2.02e+02  -3.8 2.63e-02 6.66e-03h  1
 168 -2.5848972e-01 3.88e-02 1.11e+03  -6.0 6.50e+00  -3.4 6.45e-01 4.74e-02h  1
 169 -2.5845437e-01 2.06e-02 5.47e+02  -6.0 3.26e+01  -3.9 2.35e-01 5.09e-01h  1
iter    objective    inf_pr   inf_du lg(mu)  ||d||  lg(rg) alpha_du alpha_pr  ls
 170 -2.5845790e-01 7.27e-03 1.88e+02  -6.0 3.18e+00  -4.3 6.23e-01 6.57e-01f  1
 171 -2.5845189e-01 4.18e-03 1.15e+02  -6.0 7.02e+00  -3.9 7.05e-01 3.90e-01f  1
 172 -2.5846995e-01 5.00e-04 1.22e+00  -6.0 2.87e-01  -4.4 9.34e-01 1.00e+00f  1
 173 -2.5848074e-01 4.88e-04 8.88e-01  -6.0 6.56e-01  -4.9 9.68e-01 3.72e-01h  1
 174 -2.5848132e-01 2.50e-04 1.59e+00  -6.0 3.36e-01  -5.3 1.00e+00 4.78e-01f  1
 175 -2.5847178e-01 4.12e-04 4.37e-01  -6.0 5.00e-01  -5.8 1.00e+00 1.00e+00f  1
 176 -2.5847192e-01 1.47e-03 7.78e-02  -6.0 1.37e+00  -6.3 1.00e+00 1.00e+00h  1
 177 -2.5847820e-01 2.04e-03 3.71e-02  -6.0 4.21e+00  -6.8 1.00e+00 1.00e+00h  1
 178 -2.5850106e-01 1.90e-02 2.99e-02  -6.0 1.28e+01  -7.2 1.00e+00 1.00e+00h  1
 179 -2.5852600e-01 2.72e-02 1.70e+00  -6.0 2.04e+01  -7.7 6.86e-01 3.89e-01H  1
iter    objective    inf_pr   inf_du lg(mu)  ||d||  lg(rg) alpha_du alpha_pr  ls
 180 -2.5853317e-01 3.95e-02 1.29e+01  -6.0 3.24e+01  -8.2 1.00e+00 7.93e-01f  1
 181 -2.5865184e-01 9.60e-02 2.66e-01  -6.0 8.00e+01  -8.7 1.00e+00 1.00e+00f  1
 182 -2.5884834e-01 7.14e-01 2.22e-01  -6.0 2.18e+02  -9.2 1.00e+00 1.00e+00h  1
 183 -2.5902909e-01 3.90e+00 2.17e+01  -6.0 5.07e+02  -9.6 1.39e-01 1.00e+00h  1
 184 -2.5928685e-01 9.92e+00 1.96e+01  -6.0 7.97e+02 -10.1 6.03e-01 1.00e+00h  1
 185 -2.5938657e-01 2.26e+01 2.86e+01  -6.0 1.30e+03 -10.6 3.97e-01 1.00e+00h  1
 186 -2.5942495e-01 3.51e+01 3.64e+01  -6.0 9.94e+03    -  1.18e-01 1.08e-01h  1
 187 -2.5933247e-01 9.33e-01 3.37e+03  -6.0 1.67e+01  -7.4 9.65e-02 1.00e+00h  1
 188 -2.5942233e-01 1.07e+00 1.09e+03  -6.0 1.99e+01  -7.0 5.19e-01 6.66e-01h  1
 189 -2.5954002e-01 6.86e-01 2.34e+01  -6.0 7.72e+00  -6.6 1.00e+00 1.00e+00h  1
iter    objective    inf_pr   inf_du lg(mu)  ||d||  lg(rg) alpha_du alpha_pr  ls
 190 -2.5966005e-01 1.43e+00 2.43e+01  -6.0 5.20e+01  -7.1 2.52e-01 1.59e-01h  2
 191 -2.5978214e-01 2.02e+00 7.14e+01  -6.0 5.26e+01  -7.6 2.10e-01 1.03e-01h  2
 192 -2.5994313e-01 2.16e+00 1.40e+02  -6.0 1.72e+01  -8.0 1.00e+00 5.00e-01h  2
 193 -2.6005426e-01 3.88e-01 2.26e+02  -6.0 3.97e+01  -8.5 1.00e+00 1.00e+00h  1
 194 -2.6007502e-01 2.73e-01 5.87e+01  -6.0 1.30e+02  -9.0 1.00e+00 1.00e+00h  1
 195 -2.6008483e-01 4.67e+00 1.67e+02  -6.0 5.36e+02  -9.5 1.00e+00 1.00e+00h  1
 196 -2.6012129e-01 2.93e+00 3.41e+01  -6.0 3.49e+02  -9.0 1.00e+00 1.00e+00h  1
 197 -2.6028625e-01 1.16e+01 7.57e+02  -6.0 2.42e+03  -9.5 1.41e-01 3.20e-01h  1
 198 -2.6035283e-01 4.31e+01 6.95e+02  -6.0 1.49e+04    -  8.59e-03 1.23e-01h  1
 199 -2.6039371e-01 3.98e+01 6.24e+02  -6.0 3.13e+03 -10.0 9.51e-02 7.68e-02h  1
iter    objective    inf_pr   inf_du lg(mu)  ||d||  lg(rg) alpha_du alpha_pr  ls
 200 -2.6047935e-01 2.93e+01 3.93e+02  -6.0 2.70e+03    -  2.86e-02 3.64e-01h  1
 201 -2.6049722e-01 2.49e+01 3.26e+02  -6.0 2.80e+04    -  1.59e-03 1.66e-01H  1
 202 -2.6049749e-01 2.43e+01 3.12e+02  -6.0 8.64e+03 -10.5 1.58e-01 2.53e-02h  1
 203 -2.6053970e-01 2.10e+01 3.03e+04  -6.0 3.80e+03    -  4.14e-04 1.49e-01h  1
 204 -2.6051131e-01 2.05e+01 2.95e+04  -6.0 1.02e+04 -10.9 3.12e-02 2.38e-02h  2
 205 -2.6045250e-01 2.03e+01 2.93e+04  -6.0 5.22e+03  -9.6 6.07e-03 8.27e-03h  1
 206 -2.6044300e-01 1.44e+01 2.07e+04  -6.0 1.22e+03    -  1.24e-01 2.97e-01h  1
 207 -2.6048330e-01 1.11e+01 1.60e+04  -6.0 3.49e+02 -10.1 6.24e-01 2.29e-01h  1
 208 -2.6047575e-01 6.11e+00 6.36e+03  -6.0 7.49e+02    -  4.63e-01 6.07e-01h  1
 209 -2.6047224e-01 6.41e+00 4.58e+03  -6.0 1.24e+03    -  4.44e-01 2.76e-01h  1
iter    objective    inf_pr   inf_du lg(mu)  ||d||  lg(rg) alpha_du alpha_pr  ls
 210 -2.6047481e-01 5.80e+00 4.12e+03  -6.0 3.77e+02  -9.7 3.04e-02 9.81e-02h  1
 211 -2.6041946e-01 8.70e+00 1.75e+03  -6.0 7.24e+02 -10.1 5.47e-02 1.00e+00h  1
 212 -2.6044741e-01 6.49e+00 1.32e+03  -6.0 1.53e+02    -  9.30e-01 2.56e-01h  1
 213 -2.6041598e-01 3.93e+00 2.36e+01  -6.0 4.71e+02  -9.7 3.53e-01 1.00e+00h  1
 214 -2.6048681e-01 1.36e+01 8.57e+01  -6.0 1.06e+03    -  2.63e-01 7.99e-01h  1
 215 -2.6047817e-01 1.36e+01 7.36e+01  -6.0 2.17e+04 -10.2 1.24e-02 3.40e-03h  1
 216 -2.6036487e-01 9.11e+00 4.06e+01  -6.0 9.15e+02    -  9.89e-02 3.96e-01h  1
 217 -2.6045539e-01 1.44e+00 1.26e+01  -6.0 4.09e+02    -  1.00e+00 1.00e+00h  1
 218 -2.6040529e-01 1.20e+00 1.45e+01  -6.0 1.57e+02    -  1.00e+00 1.00e+00h  1
 219 -2.6040557e-01 8.40e-01 1.94e+01  -6.0 4.83e+02    -  1.00e+00 3.47e-01h  2
iter    objective    inf_pr   inf_du lg(mu)  ||d||  lg(rg) alpha_du alpha_pr  ls
 220 -2.6039920e-01 8.52e-01 3.91e+01  -6.0 7.37e+02    -  4.25e-01 1.20e-01h  3
 221 -2.6047873e-01 1.06e+01 8.93e+01  -6.0 8.63e+02    -  3.92e-01 8.88e-01h  1
 222 -2.6043333e-01 8.27e+00 6.28e+01  -6.0 5.21e+02    -  3.50e-01 2.50e-01h  3
 223 -2.6044456e-01 3.93e-01 6.83e+00  -6.0 1.86e+02    -  1.00e+00 1.00e+00h  1
 224 -2.6042627e-01 9.61e-01 1.37e+00  -6.0 2.23e+02    -  1.00e+00 1.00e+00h  1
 225 -2.6042457e-01 1.21e-02 3.05e-01  -6.0 3.58e+01    -  1.00e+00 1.00e+00h  1
 226 -2.6042345e-01 9.91e-04 5.47e-03  -6.0 5.20e+00    -  1.00e+00 1.00e+00h  1
 227 -2.6042346e-01 2.90e-07 6.64e-07  -6.0 8.40e-02    -  1.00e+00 1.00e+00h  1
 228 -2.6098064e-01 2.13e+00 1.87e+01  -7.5 2.23e+03    -  2.98e-01 2.32e-01f  1
 229 -2.6103220e-01 2.11e+00 1.91e+01  -7.5 3.88e+03    -  3.37e-02 2.90e-02h  1
iter    objective    inf_pr   inf_du lg(mu)  ||d||  lg(rg) alpha_du alpha_pr  ls
 230 -2.6112916e-01 2.08e+00 3.43e+01  -7.5 3.93e+02  -9.8 1.53e-01 6.76e-02h  1
 231 -2.6116359e-01 2.03e+00 1.01e+02  -7.5 1.60e+02  -9.3 4.48e-01 3.57e-02h  1
 232 -2.6165622e-01 5.83e+00 6.07e+01  -7.5 3.08e+03    -  2.36e-02 3.50e-01h  1
 233 -2.6173721e-01 5.33e+00 5.78e+01  -7.5 1.75e+03    -  1.68e-01 1.13e-01h  1
 234 -2.6197538e-01 4.76e+00 1.92e+01  -7.5 1.71e+03    -  1.87e-01 3.58e-01h  1
 235 -2.6206694e-01 3.95e+00 6.25e+01  -7.5 1.36e+03    -  5.65e-01 2.08e-01h  1
 236 -2.6228652e-01 3.54e+00 2.37e+01  -7.5 1.47e+03    -  3.95e-01 6.64e-01h  1
 237 -2.6233151e-01 2.11e+00 1.26e+02  -7.5 1.10e+02  -9.8 7.05e-01 4.04e-01h  1
 238 -2.6235859e-01 1.67e+00 2.82e+01  -7.5 1.39e+03    -  1.27e-01 2.41e-01h  1
 239 -2.6240040e-01 1.20e+00 6.45e+02  -7.5 1.83e+02 -10.3 1.00e+00 2.85e-01h  1
iter    objective    inf_pr   inf_du lg(mu)  ||d||  lg(rg) alpha_du alpha_pr  ls
 240 -2.6240991e-01 1.08e+00 8.28e+02  -7.5 3.90e+02 -10.8 4.55e-01 1.00e-01h  1
 241 -2.6250441e-01 2.55e+00 6.04e+02  -7.5 5.77e+02 -11.2 1.74e-01 1.00e+00h  1
 242 -2.6252328e-01 1.80e+00 8.45e+02  -7.5 2.74e+02 -11.7 2.09e-01 2.92e-01h  1
 243 -2.6252848e-01 4.01e+00 2.48e+06  -7.5 1.48e+03 -12.2 3.97e-04 3.27e-01h  1
 244 -2.6255544e-01 1.49e+00 8.30e+05  -7.5 3.23e+02    -  2.75e-01 6.65e-01h  1
 245 -2.6254668e-01 1.13e+00 5.71e+05  -7.5 3.05e+02    -  5.48e-02 3.12e-01h  1
 246 -2.6252511e-01 6.53e-03 1.53e+02  -7.5 3.26e+01    -  2.50e-01 1.00e+00h  1
 247 -2.6253740e-01 6.63e-01 1.05e+00  -7.5 9.08e+01    -  1.00e+00 1.00e+00h  1
 248 -2.6252986e-01 1.02e-01 6.88e-02  -7.5 5.18e+01    -  5.77e-01 1.00e+00h  1
 249 -2.6252990e-01 1.79e-01 5.76e-05  -7.5 6.13e+01 -10.9 1.00e+00 1.00e+00h  1
iter    objective    inf_pr   inf_du lg(mu)  ||d||  lg(rg) alpha_du alpha_pr  ls
 250 -2.6252998e-01 4.58e-01 8.43e-02  -7.5 9.95e+02    -  3.17e-01 1.25e-01h  4
 251 -2.6253008e-01 3.10e-01 4.27e-03  -7.5 2.06e+02 -11.4 7.18e-01 1.00e+00H  1
 252 -2.6253073e-01 1.92e-01 1.63e-02  -7.5 8.14e+02 -11.8 1.00e+00 1.00e+00H  1
 253 -2.6253191e-01 7.84e-01 5.45e-02  -7.5 1.30e+03 -12.3 9.09e-01 1.00e+00H  1
 254 -2.6253196e-01 8.62e-01 1.21e+00  -7.5 8.29e+03 -12.8 3.25e-01 9.78e-03h  6
 255 -2.6253266e-01 2.25e+01 4.31e+00  -7.5 1.16e+04    -  7.97e-01 1.11e-01h  2
 256 -2.6253339e-01 1.95e+01 4.13e-02  -7.5 1.17e+03    -  1.00e+00 1.00e+00h  1
 257 -2.6253380e-01 2.57e+00 8.47e-01  -7.5 2.20e+02 -11.5 2.83e-01 1.00e+00h  1
 258 -2.6253375e-01 7.47e-03 2.44e-04  -7.5 1.65e+01 -10.1 1.00e+00 1.00e+00h  1
 259 -2.6253407e-01 2.58e+00 1.08e-01  -7.5 4.21e+02    -  5.62e-01 1.00e+00h  1
iter    objective    inf_pr   inf_du lg(mu)  ||d||  lg(rg) alpha_du alpha_pr  ls
 260 -2.6253402e-01 2.58e-01 3.78e-02  -7.5 6.41e+01    -  5.18e-01 1.00e+00h  1
 261 -2.6253406e-01 4.21e-02 1.20e-04  -7.5 5.33e+01    -  1.00e+00 1.00e+00h  1
 262 -2.6253417e-01 9.10e-01 2.38e-02  -7.5 1.46e+02    -  7.42e-01 1.00e+00h  1
 263 -2.6253458e-01 4.67e+00 8.33e-01  -7.5 8.40e+03    -  2.15e-01 6.45e-02h  3
 264 -2.6253503e-01 8.22e+00 3.24e-01  -7.5 1.24e+03    -  1.00e+00 5.00e-01h  2
 265 -2.6253536e-01 2.81e+00 1.76e-02  -7.5 4.16e+02    -  1.00e+00 1.00e+00h  1
 266 -2.6253541e-01 9.37e-02 6.47e-04  -7.5 7.38e+01    -  1.00e+00 1.00e+00h  1
 267 -2.6253541e-01 4.14e-05 4.53e-07  -7.5 1.70e+00    -  1.00e+00 1.00e+00h  1
 268 -2.6253541e-01 2.84e-10 4.92e-13  -7.5 7.07e-04    -  1.00e+00 1.00e+00h  1
 269 -2.6253690e-01 6.46e-01 3.67e+00  -9.0 1.73e+03    -  5.16e-01 1.16e-01h  1
iter    objective    inf_pr   inf_du lg(mu)  ||d||  lg(rg) alpha_du alpha_pr  ls
 270 -2.6253930e-01 3.64e+01 3.00e+00  -9.0 7.05e+03    -  2.36e-01 2.12e-01h  1
 271 -2.6254094e-01 4.84e+01 1.82e+00  -9.0 3.47e+03    -  2.95e-01 3.40e-01h  1
 272 -2.6254257e-01 3.89e+01 7.29e+01  -9.0 1.55e+03    -  4.53e-02 7.81e-01h  1
 273 -2.6254266e-01 3.83e+01 7.26e+01  -9.0 5.47e+03    -  1.69e-02 3.68e-02h  1
 274 -2.6254268e-01 3.72e+01 5.03e+01  -9.0 1.67e+03    -  3.85e-01 2.84e-02h  1
 275 -2.6254301e-01 3.09e+01 6.86e+03  -9.0 1.61e+03    -  1.72e-03 4.16e-01h  1
 276 -2.6254362e-01 3.87e+01 1.26e+03  -9.0 1.53e+03    -  1.59e-02 8.16e-01h  1
 277 -2.6254368e-01 2.87e+01 7.80e+02  -9.0 1.55e+03    -  1.37e-01 3.81e-01h  1
 278 -2.6254386e-01 2.66e+01 5.65e+02  -9.0 1.81e+03    -  4.25e-01 2.76e-01h  1
 279 -2.6254402e-01 2.22e+01 4.02e+02  -9.0 1.26e+03    -  4.90e-02 2.89e-01h  1
iter    objective    inf_pr   inf_du lg(mu)  ||d||  lg(rg) alpha_du alpha_pr  ls
 280 -2.6254403e-01 2.02e+01 3.66e+02  -9.0 5.59e+02    -  3.64e-02 8.98e-02h  1
 281 -2.6254406e-01 1.63e+01 2.95e+02  -9.0 5.36e+02    -  2.20e-01 1.94e-01h  1
 282 -2.6254407e-01 1.48e+01 2.67e+02  -9.0 5.98e+02    -  4.72e-02 9.46e-02h  1
 283 -2.6254419e-01 4.13e-01 2.25e+00  -9.0 1.75e+02    -  1.03e-01 1.00e+00h  1
 284 -2.6254421e-01 2.96e+00 2.90e-01  -9.0 3.72e+02    -  7.36e-01 1.00e+00h  1
 285 -2.6254421e-01 1.60e-01 1.98e-01  -9.0 6.60e+01    -  3.18e-01 1.00e+00h  1
 286 -2.6254421e-01 1.54e-03 4.87e-08  -9.0 4.85e+00 -10.6 1.00e+00 1.00e+00h  1
 287 -2.6254447e-01 5.22e+01 2.38e-02  -9.0 2.99e+03    -  5.79e-02 7.03e-01h  1
 288 -2.6254436e-01 4.52e+01 3.03e-02  -9.0 2.79e+03    -  6.61e-01 2.47e-01h  3
 289 -2.6254441e-01 7.75e-02 3.45e-02  -9.0 3.36e+01 -11.1 2.86e-01 1.00e+00h  1
iter    objective    inf_pr   inf_du lg(mu)  ||d||  lg(rg) alpha_du alpha_pr  ls
 290 -2.6254510e-01 7.06e+01 8.77e-02  -9.0 5.87e+03    -  2.44e-01 6.02e-01H  1
 291 -2.6254494e-01 6.85e+01 3.01e-01  -9.0 5.85e+03    -  1.00e+00 1.07e-01h  1
 292 -2.6254459e-01 3.64e+01 1.94e+00  -9.0 1.68e+03    -  1.89e-03 1.00e+00h  1
 293 -2.6254466e-01 2.19e-01 7.16e-02  -9.0 9.31e+01    -  8.02e-01 1.00e+00h  1
 294 -2.6254544e-01 6.36e+01 9.73e-02  -9.0 5.61e+03    -  1.84e-02 6.09e-01H  1
 295 -2.6254611e-01 6.36e+01 7.83e+00  -9.0 2.01e+03    -  1.74e-01 1.00e+00h  1
 296 -2.6254623e-01 5.55e+01 5.09e+00  -9.0 2.24e+03    -  3.31e-01 1.62e-01h  1
 297 -2.6254681e-01 5.57e+01 1.09e+00  -9.0 1.79e+03    -  7.54e-01 1.00e+00h  1
 298 -2.6254725e-01 3.35e+01 4.20e+00  -9.0 1.64e+03    -  2.28e-02 8.16e-01H  1
 299 -2.6254746e-01 2.41e+01 5.40e+03  -9.0 1.07e+03    -  1.49e-03 1.00e+00h  1
iter    objective    inf_pr   inf_du lg(mu)  ||d||  lg(rg) alpha_du alpha_pr  ls
 300 -2.6254758e-01 2.39e+01 2.70e+03  -9.0 1.48e+03    -  5.21e-01 5.00e-01h  2
 301 -2.6254756e-01 6.32e-02 3.52e+00  -9.0 2.97e+01 -11.6 5.86e-01 1.00e+00h  1
 302 -2.6254765e-01 6.23e+00 9.51e-04  -9.0 5.32e+02    -  1.00e+00 1.00e+00h  1
 303 -2.6254772e-01 5.75e+00 5.45e-04  -9.0 4.97e+02    -  1.00e+00 1.00e+00h  1
 304 -2.6254773e-01 2.19e-01 1.36e-04  -9.0 9.07e+01    -  1.00e+00 1.00e+00h  1
 305 -2.6254772e-01 3.30e-03 8.17e-07  -9.0 1.20e+01    -  1.00e+00 1.00e+00h  1
 306 -2.6254772e-01 1.77e-05 1.63e-09  -9.0 8.61e-01    -  1.00e+00 1.00e+00h  1
 307 -2.6254772e-01 2.83e-10 1.58e-14  -9.0 1.95e-03    -  1.00e+00 1.00e+00h  1

Number of Iterations....: 307

                                   (scaled)                 (unscaled)
Objective...............:  -2.6254772447203473e-01   -2.6254772447203473e-01
Dual infeasibility......:   1.5779044737485037e-14    1.5779044737485037e-14
Constraint violation....:   2.8300029019431155e-10    2.8300029019431155e-10
Complementarity.........:   9.0909091693341087e-10    9.0909091693341087e-10
Overall NLP error.......:   9.0909091693341087e-10    9.0909091693341087e-10


Number of objective function evaluations             = 473
Number of objective gradient evaluations             = 308
Number of equality constraint evaluations            = 473
Number of inequality constraint evaluations          = 474
Number of equality constraint Jacobian evaluations   = 308
Number of inequality constraint Jacobian evaluations = 308
Number of Lagrangian Hessian evaluations             = 307
Total CPU secs in IPOPT (w/o function evaluations)   =    697.448
Total CPU secs in NLP function evaluations           =     11.204

EXIT: Optimal Solution Found.
